data;

param num_top:=6;

#nodes and edges of the physical network
param n := 10;

set E := (1,2) (1,3) (1,7) (2,4) (2,7) (3,5) (4,8) (5,6) (5,7) (6,7) (6,9) (7,8) (7,9) (8,10) (9,10) ;

#nodes and edges of the virtual networks
set Nl[1] := 4 10 5 7 ;
set Nl[2] := 5 1 7 8 ;
set Nl[3] := 2 4 8 7 9 ;
set Nl[4] := 4 6 2 7 9 ;
set Nl[5] := 9 6 2 8 ;
set Nl[6] := 5 7 2 4 6 ;

set El[1] := (4,10) (5,10) (5,7) (4,7) ;
set El[2] := (1,5) (1,7) (7,8) (5,8) (1,8) (5,7) ;
set El[3] := (2,4) (4,8) (7,8) (7,9) (2,9) ;
set El[4] := (4,6) (2,6) (2,7) (7,9) (4,9) (2,9) (4,7) (2,4) (6,9) (6,7) ;
set El[5] := (6,9) (2,6) (2,8) (8,9) (2,9) (6,8) ;
set El[6] := (5,7) (2,7) (2,4) (4,6) (5,6) ;
